
  22   10
  10   10   10   10   10   10   10   10   10   10

   0   0   0   0   0   0   0   0   0   0   0   1 2 
   6  10  10  10  10  10  10  10  10  10  10   1 3 
   4  10  10  10  10  10  10  10  10  10  10   1 4 
   7  10  10  10  10  10  10  10  10  10  10   1 5 
   8  10  10  10  10  10  10  10  10  10  10   1 6 
   1  10  10  10  10  10  10  10  10  10  10   1 7 
   6  10  10  10  10  10  10  10  10  10  10   1 8 
   8  10  10  10  10  10  10  10  10  10  10   2 10 9 
   4  10  10  10  10  10  10  10  10  10  10   2 12 11 
   7  10  10  10  10  10  10  10  10  10  10   3 18 14 13 
   5  10  10  10  10  10  10  10  10  10  10   2 18 13 
   1  10  10  10  10  10  10  10  10  10  10   2 15 14 
   8  10  10  10  10  10  10  10  10  10  10   2 17 15 
   4  10  10  10  10  10  10  10  10  10  10   2 17 16 
   4  10  10  10  10  10  10  10  10  10  10   1 16 
   2  10  10  10  10  10  10  10  10  10  10   2 21 19 
   4  10  10  10  10  10  10  10  10  10  10   2 21 19 
   2  10  10  10  10  10  10  10  10  10  10   1 19 
   8  10  10  10  10  10  10  10  10  10  10   1 20 
   9  10  10  10  10  10  10  10  10  10  10   1 22
   8  10  10  10  10  10  10  10  10  10  10   1 22
   0   0   0   0   0   0   0   0   0   0   0   0 
